results/x-long/X-n190-k8.vrp_seed-12.out
16981	1160
