results/x-long/X-n190-k8.vrp_seed-12.vrp.sol
Route #1: 172 127 44 88 165 1 184 160 182 83 29 37
Route #2: 73 112 80 150 30 39 36 22 77 38 2 6 89 104 142 85 138 28 58 43 10
Route #3: 105 19 57 63 66 171 13 120 168 110 163 128 4 34 103 108 129 156 133 72 139 149 45 99 118 131
Route #4: 106 119 49 26 117 175 11 122 82 116 60 79 17 155 7 162 33 107 113 158 121 75 93 51 67 16 14
Route #5: 169 78 147 86 125 137 151 174 48 54 126 181 41 152 87 186 146 177 123 71 52 101 47 5 176 12 24 97 143 95
Route #6: 159 109 68 179 62 59 96 3 27 187 124 140 189 154 53 20 65 114 9 91 55 135
Route #7: 170 166 157 173 132 134 161 74 111 23 164 69 178 21 50 94 144 115 145 81 92 46 31
Route #8: 102 35 130 56 8 100 42 90 15 76 40 32 61 180 153 84 18 185 70 141 98 148 167 136 183 25 64 188
Cost 16981.000000